Silicene nanodot
1.00000000000000  
386800E-5 0  0 
193400E-5 335000E-5 0
0  0  12.8176
Si
2 
Direct
0.0048209862405386  0.9903580275189086  0.00000
0.6714795917941458  0.6570408164117296  0.042590424560806
